param set_len = 30;
param target := 1036866687;
set values := 103807332, 2701445, 1768633, 12777786, 119762727, 51193412, 59381364, 123835917, 23385528, 108624755, 127451866, 5688937, 78249035, 44386187, 32910205, 82727293, 76547067, 32539693, 82706756, 83187429, 106354974, 44523810, 80449598, 39537002, 37358957, 52202856, 64331617, 108380956, 93003191, 69134480, ;
